p cnf 23 62
-5 -6 0
-5 -7 0
-6 -7 0
5 6 7 0
2 -5 0
3 -6 0
4 -7 0
-8 -9 0
-8 -10 0
-8 -11 0
-8 -12 0
-9 -10 0
-9 -11 0
-9 -12 0
-10 -11 0
-10 -12 0
-11 -12 0
8 9 10 11 12 0
-13 -14 0
-13 -15 0
-13 -16 0
-13 -17 0
-14 -15 0
-14 -16 0
-14 -17 0
-15 -16 0
-15 -17 0
-16 -17 0
13 14 15 16 17 0
-18 -19 0
-18 -20 0
-18 -21 0
-18 -22 0
-18 -23 0
-19 -20 0
-19 -21 0
-19 -22 0
-19 -23 0
-20 -21 0
-20 -22 0
-20 -23 0
-21 -22 0
-21 -23 0
-22 -23 0
18 19 20 21 22 23 0
-1 -16 0
-8 -13 0
-9 -14 0
-10 -15 0
-11 -16 0
-12 -17 0
-2 -8 -18 0
-2 -9 -20 0
-2 -10 -21 0
-2 -11 -22 0
-2 -12 -23 0
-3 -13 -18 0
-3 -14 -20 0
-3 -15 -21 0
-3 -16 -22 0
-3 -17 -23 0
-4 -19 0
